proyfinal/src/viki/013/andrea/andrea-localstore/experimentInOfficeAgust.take6/worker_3/4521121c-c463-4bde-8bbb-3be67aab156c.als.cnf.out
Reading from standard input... Use '--help' for help.
============================[ Problem Statistics ]=============================
|                                                                             |
|  Number of variables:         87638                                         |
|  Number of clauses:          161767                                         |
|  Parse time:                   0.04 s                                       |
|                                                                             |
============================[ Search Statistics ]==============================
| Conflicts |          ORIGINAL         |          LEARNT          | Progress |
|           |    Vars  Clauses Literals |    Limit  Clauses Lit/Cl |          |
===============================================================================
|       100 |   61958   103628   258966 |    37996      100     90 | 29.302 % |
|       250 |   61958   103628   258966 |    41796      250    163 | 29.302 % |
|       475 |   61957   103584   258876 |    45976      473    160 | 29.303 % |
|       812 |   61957   103584   258876 |    50573      810    135 | 29.303 % |
|      1318 |   61957   103584   258876 |    55631     1316    126 | 29.303 % |
|      2077 |   43685    50649   129286 |    61194     2037     98 | 50.153 % |
|      3216 |   43685    50649   129286 |    67313     3176     73 | 50.153 % |
===============================================================================
restarts              : 22
conflicts             : 4244           (8861 /sec)
decisions             : 14563          (0.00 % random) (30406 /sec)
propagations          : 6410187        (13383833 /sec)
conflict literals     : 258180         (36.35 % deleted)
Memory used           : 24.81 MB
CPU time              : 0.47895 s

UNSATISFIABLE
